\ This file was automatically generated by Zimpl
\ set n := { 1 to 3};
\ set a := { 1 to 3};
\ set na := n*a;
\ param C[a] := <1> 0.21, <2> 0.18, <3> 0.15;
\ param M[a] := <1> 200, <2> 180, <3> 150;
\ param NA[na] :=                      <1,1> 90, <1,2> 20, <1,3> 40,                 <2,1> 30, <2,2> 80, <2,3> 60,             
\      <3,1> 10, <3,2> 20, <3,3> 60;
\ var X[a] >= 0;
\ minimize custo :     sum <ax> in a: C[ax] * X[ax];
\ subto c1:     forall <nx> in n:         sum <ax> in a:              NA[nx,ax] * X[ax] >= M[nx];
\Problem name: file
Minimize
 custo:  +0.21 X#1 +0.18 X#2 +0.15 X#3
Subject to
 c1_1:
  +40 X#3 +20 X#2 +90 X#1 >= 200
 c1_2:
  +60 X#3 +80 X#2 +30 X#1 >= 180
 c1_3:
  +60 X#3 +20 X#2 +10 X#1 >= 150
Bounds
 0 <= X#1 <= +inf
 0 <= X#2 <= +inf
 0 <= X#3 <= +inf
End
